Minimize
	value: tt

Subject to
tt + 1000 s_1_1 > 0.0
tt - t_1_1 - 1000.841583 s_1_1  + 0.841583 s_1_7  > -999.321589
tt + 1000 s_2_1 > 0.0
tt - t_2_1 - 1000.685616 s_2_1  + 0.685616 s_2_7  > -997.268974
tt + 1000 s_1_2 > 0.0
tt - t_1_2 - 1000.841583 s_1_2  + 0.841583 s_1_8  > -999.196778
tt + 1000 s_2_2 > 0.0
tt - t_2_2 - 1000.685616 s_2_2  + 0.685616 s_2_8  > -997.248712
tt + 1000 s_1_3 > 0.0
tt - t_1_3 - 1000.841583 s_1_3  + 0.841583 s_1_8  > -998.986197
tt + 1000 s_2_3 > 0.0
tt - t_2_3 - 1000.685616 s_2_3  + 0.685616 s_2_8  > -996.233802
tt + 1000 s_1_4 > 0.0
tt - t_1_4 - 1001.683165 s_1_4  + 0.841583 s_1_8  + 0.841583 s_1_3  > -999.437300
tt + 1000 s_2_4 > 0.0
tt - t_2_4 - 1001.371232 s_2_4  + 0.685616 s_2_8  + 0.685616 s_2_3  > -997.274772
tt + 1000 s_1_5 > 0.0
tt - t_1_5 - 1001.683165 s_1_5  + 0.841583 s_1_7  + 0.841583 s_1_8  > -999.493022
tt + 1000 s_2_5 > 0.0
tt - t_2_5 - 1001.371232 s_2_5  + 0.685616 s_2_7  + 0.685616 s_2_8  > -997.810923
tt + 1000 s_1_6 > 0.0
tt - t_1_6 - 1004.207914 s_1_6  + 0.841583 s_1_1  + 0.841583 s_1_5  + 0.841583 s_1_3  + 0.841583 s_1_2  + 0.841583 s_1_4  > -999.839700
tt + 1000 s_2_6 > 0.0
tt - t_2_6 - 1003.428080 s_2_6  + 0.685616 s_2_1  + 0.685616 s_2_5  + 0.685616 s_2_3  + 0.685616 s_2_2  + 0.685616 s_2_4  > -998.165800
tt + 1000 s_1_7 > 0.0
tt - t_1_7 - 1000.000000 s_1_7  > -997.760194
tt + 1000 s_2_7 > 0.0
tt - t_2_7 - 1000.000000 s_2_7  > -991.176869
tt + 1000 s_1_8 > 0.0
tt - t_1_8 - 1000.000000 s_1_8  > -998.955389
tt + 1000 s_2_8 > 0.0
tt - t_2_8 - 1000.000000 s_2_8  > -997.639619
s_1_1 + s_2_1 = 1
s_1_2 + s_2_2 = 1
s_1_3 + s_2_3 = 1
s_1_4 + s_2_4 = 1
s_1_5 + s_2_5 = 1
s_1_6 + s_2_6 = 1
s_1_7 + s_2_7 = 1
s_1_8 + s_2_8 = 1
s_1_1 + s_1_2 + 1000 r_1_1_2 >= 2
- s_1_1 - s_1_2 - 1000 r_1_1_2 >= -1001
t_1_1 - t_1_2 - 1000.000000 u_1_1_2 - 0.841583 s_1_2  + 0.841583 s_1_8  + 2000.000000 r_1_1_2 > -999.196778
s_2_1 + s_2_2 + 1000 r_2_1_2 >= 2
- s_2_1 - s_2_2 - 1000 r_2_1_2 >= -1001
t_2_1 - t_2_2 - 1000.000000 u_2_1_2 - 0.685616 s_2_2  + 0.685616 s_2_8  + 2000.000000 r_2_1_2 > -997.248712
s_1_1 + s_1_3 + 1000 r_1_1_3 >= 2
- s_1_1 - s_1_3 - 1000 r_1_1_3 >= -1001
t_1_1 - t_1_3 - 1000.000000 u_1_1_3 - 0.841583 s_1_3  + 0.841583 s_1_8  + 2000.000000 r_1_1_3 > -998.986197
s_2_1 + s_2_3 + 1000 r_2_1_3 >= 2
- s_2_1 - s_2_3 - 1000 r_2_1_3 >= -1001
t_2_1 - t_2_3 - 1000.000000 u_2_1_3 - 0.685616 s_2_3  + 0.685616 s_2_8  + 2000.000000 r_2_1_3 > -996.233802
s_1_1 + s_1_4 + 1000 r_1_1_4 >= 2
- s_1_1 - s_1_4 - 1000 r_1_1_4 >= -1001
t_1_1 - t_1_4 - 1000.000000 u_1_1_4 - 1.683165 s_1_4  + 0.841583 s_1_8  + 0.841583 s_1_3  + 2000.000000 r_1_1_4 > -999.437300
s_2_1 + s_2_4 + 1000 r_2_1_4 >= 2
- s_2_1 - s_2_4 - 1000 r_2_1_4 >= -1001
t_2_1 - t_2_4 - 1000.000000 u_2_1_4 - 1.371232 s_2_4  + 0.685616 s_2_8  + 0.685616 s_2_3  + 2000.000000 r_2_1_4 > -997.274772
s_1_1 + s_1_5 + 1000 r_1_1_5 >= 2
- s_1_1 - s_1_5 - 1000 r_1_1_5 >= -1001
t_1_1 - t_1_5 - 1000.000000 u_1_1_5 - 1.683165 s_1_5  + 0.841583 s_1_7  + 0.841583 s_1_8  + 2000.000000 r_1_1_5 > -999.493022
s_2_1 + s_2_5 + 1000 r_2_1_5 >= 2
- s_2_1 - s_2_5 - 1000 r_2_1_5 >= -1001
t_2_1 - t_2_5 - 1000.000000 u_2_1_5 - 1.371232 s_2_5  + 0.685616 s_2_7  + 0.685616 s_2_8  + 2000.000000 r_2_1_5 > -997.810923
t_1_6 - t_1_1 - 1000.841583 s_1_1  + 0.841583 s_1_7  > -999.321589
t_1_6 - t_2_1 - 1000.685616 s_2_1  + 0.685616 s_2_7  > -997.268974
t_2_6 - t_1_1 - 1000.841583 s_1_1  + 0.841583 s_1_7  > -999.321589
t_2_6 - t_2_1 - 1000.685616 s_2_1  + 0.685616 s_2_7  > -997.268974
t_1_1 - t_1_7 - 1000.000000 s_1_7  > -997.760194
t_1_1 - t_2_7 - 1000.000000 s_2_7  > -991.176869
t_2_1 - t_1_7 - 1000.000000 s_1_7  > -997.760194
t_2_1 - t_2_7 - 1000.000000 s_2_7  > -991.176869
s_1_1 + s_1_8 + 1000 r_1_1_8 >= 2
- s_1_1 - s_1_8 - 1000 r_1_1_8 >= -1001
t_1_1 - t_1_8 - 1000.000000 u_1_1_8 - 0.000000 s_1_8  + 2000.000000 r_1_1_8 > -998.955389
s_2_1 + s_2_8 + 1000 r_2_1_8 >= 2
- s_2_1 - s_2_8 - 1000 r_2_1_8 >= -1001
t_2_1 - t_2_8 - 1000.000000 u_2_1_8 - 0.000000 s_2_8  + 2000.000000 r_2_1_8 > -997.639619
s_1_2 + s_1_1 + 1000 r_1_1_2 >= 2
- s_1_2 - s_1_1 - 1000 r_1_1_2 >= -1001
t_1_2 - t_1_1 + 1000.000000 u_1_1_2 - 0.841583 s_1_1  + 0.841583 s_1_7  + 2000.000000 r_1_1_2 > 0.678411
s_2_2 + s_2_1 + 1000 r_2_1_2 >= 2
- s_2_2 - s_2_1 - 1000 r_2_1_2 >= -1001
t_2_2 - t_2_1 + 1000.000000 u_2_1_2 - 0.685616 s_2_1  + 0.685616 s_2_7  + 2000.000000 r_2_1_2 > 2.731026
s_1_2 + s_1_3 + 1000 r_1_2_3 >= 2
- s_1_2 - s_1_3 - 1000 r_1_2_3 >= -1001
t_1_2 - t_1_3 - 1000.000000 u_1_2_3 - 0.841583 s_1_3  + 0.841583 s_1_8  + 2000.000000 r_1_2_3 > -998.986197
s_2_2 + s_2_3 + 1000 r_2_2_3 >= 2
- s_2_2 - s_2_3 - 1000 r_2_2_3 >= -1001
t_2_2 - t_2_3 - 1000.000000 u_2_2_3 - 0.685616 s_2_3  + 0.685616 s_2_8  + 2000.000000 r_2_2_3 > -996.233802
s_1_2 + s_1_4 + 1000 r_1_2_4 >= 2
- s_1_2 - s_1_4 - 1000 r_1_2_4 >= -1001
t_1_2 - t_1_4 - 1000.000000 u_1_2_4 - 1.683165 s_1_4  + 0.841583 s_1_8  + 0.841583 s_1_3  + 2000.000000 r_1_2_4 > -999.437300
s_2_2 + s_2_4 + 1000 r_2_2_4 >= 2
- s_2_2 - s_2_4 - 1000 r_2_2_4 >= -1001
t_2_2 - t_2_4 - 1000.000000 u_2_2_4 - 1.371232 s_2_4  + 0.685616 s_2_8  + 0.685616 s_2_3  + 2000.000000 r_2_2_4 > -997.274772
s_1_2 + s_1_5 + 1000 r_1_2_5 >= 2
- s_1_2 - s_1_5 - 1000 r_1_2_5 >= -1001
t_1_2 - t_1_5 - 1000.000000 u_1_2_5 - 1.683165 s_1_5  + 0.841583 s_1_7  + 0.841583 s_1_8  + 2000.000000 r_1_2_5 > -999.493022
s_2_2 + s_2_5 + 1000 r_2_2_5 >= 2
- s_2_2 - s_2_5 - 1000 r_2_2_5 >= -1001
t_2_2 - t_2_5 - 1000.000000 u_2_2_5 - 1.371232 s_2_5  + 0.685616 s_2_7  + 0.685616 s_2_8  + 2000.000000 r_2_2_5 > -997.810923
t_1_6 - t_1_2 - 1000.841583 s_1_2  + 0.841583 s_1_8  > -999.196778
t_1_6 - t_2_2 - 1000.685616 s_2_2  + 0.685616 s_2_8  > -997.248712
t_2_6 - t_1_2 - 1000.841583 s_1_2  + 0.841583 s_1_8  > -999.196778
t_2_6 - t_2_2 - 1000.685616 s_2_2  + 0.685616 s_2_8  > -997.248712
s_1_2 + s_1_7 + 1000 r_1_2_7 >= 2
- s_1_2 - s_1_7 - 1000 r_1_2_7 >= -1001
t_1_2 - t_1_7 - 1000.000000 u_1_2_7 - 0.000000 s_1_7  + 2000.000000 r_1_2_7 > -997.760194
s_2_2 + s_2_7 + 1000 r_2_2_7 >= 2
- s_2_2 - s_2_7 - 1000 r_2_2_7 >= -1001
t_2_2 - t_2_7 - 1000.000000 u_2_2_7 - 0.000000 s_2_7  + 2000.000000 r_2_2_7 > -991.176869
t_1_2 - t_1_8 - 1000.000000 s_1_8  > -998.955389
t_1_2 - t_2_8 - 1000.000000 s_2_8  > -997.639619
t_2_2 - t_1_8 - 1000.000000 s_1_8  > -998.955389
t_2_2 - t_2_8 - 1000.000000 s_2_8  > -997.639619
s_1_3 + s_1_1 + 1000 r_1_1_3 >= 2
- s_1_3 - s_1_1 - 1000 r_1_1_3 >= -1001
t_1_3 - t_1_1 + 1000.000000 u_1_1_3 - 0.841583 s_1_1  + 0.841583 s_1_7  + 2000.000000 r_1_1_3 > 0.678411
s_2_3 + s_2_1 + 1000 r_2_1_3 >= 2
- s_2_3 - s_2_1 - 1000 r_2_1_3 >= -1001
t_2_3 - t_2_1 + 1000.000000 u_2_1_3 - 0.685616 s_2_1  + 0.685616 s_2_7  + 2000.000000 r_2_1_3 > 2.731026
s_1_3 + s_1_2 + 1000 r_1_2_3 >= 2
- s_1_3 - s_1_2 - 1000 r_1_2_3 >= -1001
t_1_3 - t_1_2 + 1000.000000 u_1_2_3 - 0.841583 s_1_2  + 0.841583 s_1_8  + 2000.000000 r_1_2_3 > 0.803222
s_2_3 + s_2_2 + 1000 r_2_2_3 >= 2
- s_2_3 - s_2_2 - 1000 r_2_2_3 >= -1001
t_2_3 - t_2_2 + 1000.000000 u_2_2_3 - 0.685616 s_2_2  + 0.685616 s_2_8  + 2000.000000 r_2_2_3 > 2.751288
t_1_4 - t_1_3 - 1000.841583 s_1_3  + 0.841583 s_1_8  > -998.986197
t_1_4 - t_2_3 - 1000.685616 s_2_3  + 0.685616 s_2_8  > -996.233802
t_2_4 - t_1_3 - 1000.841583 s_1_3  + 0.841583 s_1_8  > -998.986197
t_2_4 - t_2_3 - 1000.685616 s_2_3  + 0.685616 s_2_8  > -996.233802
s_1_3 + s_1_5 + 1000 r_1_3_5 >= 2
- s_1_3 - s_1_5 - 1000 r_1_3_5 >= -1001
t_1_3 - t_1_5 - 1000.000000 u_1_3_5 - 1.683165 s_1_5  + 0.841583 s_1_7  + 0.841583 s_1_8  + 2000.000000 r_1_3_5 > -999.493022
s_2_3 + s_2_5 + 1000 r_2_3_5 >= 2
- s_2_3 - s_2_5 - 1000 r_2_3_5 >= -1001
t_2_3 - t_2_5 - 1000.000000 u_2_3_5 - 1.371232 s_2_5  + 0.685616 s_2_7  + 0.685616 s_2_8  + 2000.000000 r_2_3_5 > -997.810923
t_1_6 - t_1_3 - 1000.841583 s_1_3  + 0.841583 s_1_8  > -998.986197
t_1_6 - t_2_3 - 1000.685616 s_2_3  + 0.685616 s_2_8  > -996.233802
t_2_6 - t_1_3 - 1000.841583 s_1_3  + 0.841583 s_1_8  > -998.986197
t_2_6 - t_2_3 - 1000.685616 s_2_3  + 0.685616 s_2_8  > -996.233802
s_1_3 + s_1_7 + 1000 r_1_3_7 >= 2
- s_1_3 - s_1_7 - 1000 r_1_3_7 >= -1001
t_1_3 - t_1_7 - 1000.000000 u_1_3_7 - 0.000000 s_1_7  + 2000.000000 r_1_3_7 > -997.760194
s_2_3 + s_2_7 + 1000 r_2_3_7 >= 2
- s_2_3 - s_2_7 - 1000 r_2_3_7 >= -1001
t_2_3 - t_2_7 - 1000.000000 u_2_3_7 - 0.000000 s_2_7  + 2000.000000 r_2_3_7 > -991.176869
t_1_3 - t_1_8 - 1000.000000 s_1_8  > -998.955389
t_1_3 - t_2_8 - 1000.000000 s_2_8  > -997.639619
t_2_3 - t_1_8 - 1000.000000 s_1_8  > -998.955389
t_2_3 - t_2_8 - 1000.000000 s_2_8  > -997.639619
s_1_4 + s_1_1 + 1000 r_1_1_4 >= 2
- s_1_4 - s_1_1 - 1000 r_1_1_4 >= -1001
t_1_4 - t_1_1 + 1000.000000 u_1_1_4 - 0.841583 s_1_1  + 0.841583 s_1_7  + 2000.000000 r_1_1_4 > 0.678411
s_2_4 + s_2_1 + 1000 r_2_1_4 >= 2
- s_2_4 - s_2_1 - 1000 r_2_1_4 >= -1001
t_2_4 - t_2_1 + 1000.000000 u_2_1_4 - 0.685616 s_2_1  + 0.685616 s_2_7  + 2000.000000 r_2_1_4 > 2.731026
s_1_4 + s_1_2 + 1000 r_1_2_4 >= 2
- s_1_4 - s_1_2 - 1000 r_1_2_4 >= -1001
t_1_4 - t_1_2 + 1000.000000 u_1_2_4 - 0.841583 s_1_2  + 0.841583 s_1_8  + 2000.000000 r_1_2_4 > 0.803222
s_2_4 + s_2_2 + 1000 r_2_2_4 >= 2
- s_2_4 - s_2_2 - 1000 r_2_2_4 >= -1001
t_2_4 - t_2_2 + 1000.000000 u_2_2_4 - 0.685616 s_2_2  + 0.685616 s_2_8  + 2000.000000 r_2_2_4 > 2.751288
s_1_4 + s_1_5 + 1000 r_1_4_5 >= 2
- s_1_4 - s_1_5 - 1000 r_1_4_5 >= -1001
t_1_4 - t_1_5 - 1000.000000 u_1_4_5 - 1.683165 s_1_5  + 0.841583 s_1_7  + 0.841583 s_1_8  + 2000.000000 r_1_4_5 > -999.493022
s_2_4 + s_2_5 + 1000 r_2_4_5 >= 2
- s_2_4 - s_2_5 - 1000 r_2_4_5 >= -1001
t_2_4 - t_2_5 - 1000.000000 u_2_4_5 - 1.371232 s_2_5  + 0.685616 s_2_7  + 0.685616 s_2_8  + 2000.000000 r_2_4_5 > -997.810923
t_1_6 - t_1_4 - 1001.683165 s_1_4  + 0.841583 s_1_8  + 0.841583 s_1_3  > -999.437300
t_1_6 - t_2_4 - 1001.371232 s_2_4  + 0.685616 s_2_8  + 0.685616 s_2_3  > -997.274772
t_2_6 - t_1_4 - 1001.683165 s_1_4  + 0.841583 s_1_8  + 0.841583 s_1_3  > -999.437300
t_2_6 - t_2_4 - 1001.371232 s_2_4  + 0.685616 s_2_8  + 0.685616 s_2_3  > -997.274772
s_1_4 + s_1_7 + 1000 r_1_4_7 >= 2
- s_1_4 - s_1_7 - 1000 r_1_4_7 >= -1001
t_1_4 - t_1_7 - 1000.000000 u_1_4_7 - 0.000000 s_1_7  + 2000.000000 r_1_4_7 > -997.760194
s_2_4 + s_2_7 + 1000 r_2_4_7 >= 2
- s_2_4 - s_2_7 - 1000 r_2_4_7 >= -1001
t_2_4 - t_2_7 - 1000.000000 u_2_4_7 - 0.000000 s_2_7  + 2000.000000 r_2_4_7 > -991.176869
t_1_4 - t_1_8 - 1000.000000 s_1_8  > -998.955389
t_1_4 - t_2_8 - 1000.000000 s_2_8  > -997.639619
t_2_4 - t_1_8 - 1000.000000 s_1_8  > -998.955389
t_2_4 - t_2_8 - 1000.000000 s_2_8  > -997.639619
s_1_5 + s_1_1 + 1000 r_1_1_5 >= 2
- s_1_5 - s_1_1 - 1000 r_1_1_5 >= -1001
t_1_5 - t_1_1 + 1000.000000 u_1_1_5 - 0.841583 s_1_1  + 0.841583 s_1_7  + 2000.000000 r_1_1_5 > 0.678411
s_2_5 + s_2_1 + 1000 r_2_1_5 >= 2
- s_2_5 - s_2_1 - 1000 r_2_1_5 >= -1001
t_2_5 - t_2_1 + 1000.000000 u_2_1_5 - 0.685616 s_2_1  + 0.685616 s_2_7  + 2000.000000 r_2_1_5 > 2.731026
s_1_5 + s_1_2 + 1000 r_1_2_5 >= 2
- s_1_5 - s_1_2 - 1000 r_1_2_5 >= -1001
t_1_5 - t_1_2 + 1000.000000 u_1_2_5 - 0.841583 s_1_2  + 0.841583 s_1_8  + 2000.000000 r_1_2_5 > 0.803222
s_2_5 + s_2_2 + 1000 r_2_2_5 >= 2
- s_2_5 - s_2_2 - 1000 r_2_2_5 >= -1001
t_2_5 - t_2_2 + 1000.000000 u_2_2_5 - 0.685616 s_2_2  + 0.685616 s_2_8  + 2000.000000 r_2_2_5 > 2.751288
s_1_5 + s_1_3 + 1000 r_1_3_5 >= 2
- s_1_5 - s_1_3 - 1000 r_1_3_5 >= -1001
t_1_5 - t_1_3 + 1000.000000 u_1_3_5 - 0.841583 s_1_3  + 0.841583 s_1_8  + 2000.000000 r_1_3_5 > 1.013803
s_2_5 + s_2_3 + 1000 r_2_3_5 >= 2
- s_2_5 - s_2_3 - 1000 r_2_3_5 >= -1001
t_2_5 - t_2_3 + 1000.000000 u_2_3_5 - 0.685616 s_2_3  + 0.685616 s_2_8  + 2000.000000 r_2_3_5 > 3.766198
s_1_5 + s_1_4 + 1000 r_1_4_5 >= 2
- s_1_5 - s_1_4 - 1000 r_1_4_5 >= -1001
t_1_5 - t_1_4 + 1000.000000 u_1_4_5 - 1.683165 s_1_4  + 0.841583 s_1_8  + 0.841583 s_1_3  + 2000.000000 r_1_4_5 > 0.562700
s_2_5 + s_2_4 + 1000 r_2_4_5 >= 2
- s_2_5 - s_2_4 - 1000 r_2_4_5 >= -1001
t_2_5 - t_2_4 + 1000.000000 u_2_4_5 - 1.371232 s_2_4  + 0.685616 s_2_8  + 0.685616 s_2_3  + 2000.000000 r_2_4_5 > 2.725228
t_1_6 - t_1_5 - 1001.683165 s_1_5  + 0.841583 s_1_7  + 0.841583 s_1_8  > -999.493022
t_1_6 - t_2_5 - 1001.371232 s_2_5  + 0.685616 s_2_7  + 0.685616 s_2_8  > -997.810923
t_2_6 - t_1_5 - 1001.683165 s_1_5  + 0.841583 s_1_7  + 0.841583 s_1_8  > -999.493022
t_2_6 - t_2_5 - 1001.371232 s_2_5  + 0.685616 s_2_7  + 0.685616 s_2_8  > -997.810923
t_1_5 - t_1_7 - 1000.000000 s_1_7  > -997.760194
t_1_5 - t_2_7 - 1000.000000 s_2_7  > -991.176869
t_2_5 - t_1_7 - 1000.000000 s_1_7  > -997.760194
t_2_5 - t_2_7 - 1000.000000 s_2_7  > -991.176869
t_1_5 - t_1_8 - 1000.000000 s_1_8  > -998.955389
t_1_5 - t_2_8 - 1000.000000 s_2_8  > -997.639619
t_2_5 - t_1_8 - 1000.000000 s_1_8  > -998.955389
t_2_5 - t_2_8 - 1000.000000 s_2_8  > -997.639619
s_1_7 + s_1_2 + 1000 r_1_2_7 >= 2
- s_1_7 - s_1_2 - 1000 r_1_2_7 >= -1001
t_1_7 - t_1_2 + 1000.000000 u_1_2_7 - 0.841583 s_1_2  + 0.841583 s_1_8  + 2000.000000 r_1_2_7 > 0.803222
s_2_7 + s_2_2 + 1000 r_2_2_7 >= 2
- s_2_7 - s_2_2 - 1000 r_2_2_7 >= -1001
t_2_7 - t_2_2 + 1000.000000 u_2_2_7 - 0.685616 s_2_2  + 0.685616 s_2_8  + 2000.000000 r_2_2_7 > 2.751288
s_1_7 + s_1_3 + 1000 r_1_3_7 >= 2
- s_1_7 - s_1_3 - 1000 r_1_3_7 >= -1001
t_1_7 - t_1_3 + 1000.000000 u_1_3_7 - 0.841583 s_1_3  + 0.841583 s_1_8  + 2000.000000 r_1_3_7 > 1.013803
s_2_7 + s_2_3 + 1000 r_2_3_7 >= 2
- s_2_7 - s_2_3 - 1000 r_2_3_7 >= -1001
t_2_7 - t_2_3 + 1000.000000 u_2_3_7 - 0.685616 s_2_3  + 0.685616 s_2_8  + 2000.000000 r_2_3_7 > 3.766198
s_1_7 + s_1_4 + 1000 r_1_4_7 >= 2
- s_1_7 - s_1_4 - 1000 r_1_4_7 >= -1001
t_1_7 - t_1_4 + 1000.000000 u_1_4_7 - 1.683165 s_1_4  + 0.841583 s_1_8  + 0.841583 s_1_3  + 2000.000000 r_1_4_7 > 0.562700
s_2_7 + s_2_4 + 1000 r_2_4_7 >= 2
- s_2_7 - s_2_4 - 1000 r_2_4_7 >= -1001
t_2_7 - t_2_4 + 1000.000000 u_2_4_7 - 1.371232 s_2_4  + 0.685616 s_2_8  + 0.685616 s_2_3  + 2000.000000 r_2_4_7 > 2.725228
s_1_7 + s_1_8 + 1000 r_1_7_8 >= 2
- s_1_7 - s_1_8 - 1000 r_1_7_8 >= -1001
t_1_7 - t_1_8 - 1000.000000 u_1_7_8 - 0.000000 s_1_8  + 2000.000000 r_1_7_8 > -998.955389
s_2_7 + s_2_8 + 1000 r_2_7_8 >= 2
- s_2_7 - s_2_8 - 1000 r_2_7_8 >= -1001
t_2_7 - t_2_8 - 1000.000000 u_2_7_8 - 0.000000 s_2_8  + 2000.000000 r_2_7_8 > -997.639619
s_1_8 + s_1_1 + 1000 r_1_1_8 >= 2
- s_1_8 - s_1_1 - 1000 r_1_1_8 >= -1001
t_1_8 - t_1_1 + 1000.000000 u_1_1_8 - 0.841583 s_1_1  + 0.841583 s_1_7  + 2000.000000 r_1_1_8 > 0.678411
s_2_8 + s_2_1 + 1000 r_2_1_8 >= 2
- s_2_8 - s_2_1 - 1000 r_2_1_8 >= -1001
t_2_8 - t_2_1 + 1000.000000 u_2_1_8 - 0.685616 s_2_1  + 0.685616 s_2_7  + 2000.000000 r_2_1_8 > 2.731026
s_1_8 + s_1_7 + 1000 r_1_7_8 >= 2
- s_1_8 - s_1_7 - 1000 r_1_7_8 >= -1001
t_1_8 - t_1_7 + 1000.000000 u_1_7_8 - 0.000000 s_1_7  + 2000.000000 r_1_7_8 > 2.239806
s_2_8 + s_2_7 + 1000 r_2_7_8 >= 2
- s_2_8 - s_2_7 - 1000 r_2_7_8 >= -1001
t_2_8 - t_2_7 + 1000.000000 u_2_7_8 - 0.000000 s_2_7  + 2000.000000 r_2_7_8 > 8.823131
Binary
s_1_1
s_2_1
s_1_2
s_2_2
s_1_3
s_2_3
s_1_4
s_2_4
s_1_5
s_2_5
s_1_6
s_2_6
s_1_7
s_2_7
s_1_8
s_2_8
u_1_1_2
r_1_1_2
u_2_1_2
r_2_1_2
u_1_1_3
r_1_1_3
u_2_1_3
r_2_1_3
u_1_1_4
r_1_1_4
u_2_1_4
r_2_1_4
u_1_1_5
r_1_1_5
u_2_1_5
r_2_1_5
u_1_1_8
r_1_1_8
u_2_1_8
r_2_1_8
u_1_2_3
r_1_2_3
u_2_2_3
r_2_2_3
u_1_2_4
r_1_2_4
u_2_2_4
r_2_2_4
u_1_2_5
r_1_2_5
u_2_2_5
r_2_2_5
u_1_2_7
r_1_2_7
u_2_2_7
r_2_2_7
u_1_3_5
r_1_3_5
u_2_3_5
r_2_3_5
u_1_3_7
r_1_3_7
u_2_3_7
r_2_3_7
u_1_4_5
r_1_4_5
u_2_4_5
r_2_4_5
u_1_4_7
r_1_4_7
u_2_4_7
r_2_4_7
u_1_7_8
r_1_7_8
u_2_7_8
r_2_7_8

End
